NAME : 10_3_3_1_(34).dat
COMMENT : Henke, Speranza, Wäscher, 2015
TYPE : MCVRP
DIMENSION : 11
EDGE_WEIGHT_TYPE : DISTANCE_MATRIX
CAPACITY : 1000
VEHICLES : 2
PRODUCT TYPES : 3
COMPARTMENTS : 3
NODE_COORD_SECTION
1 50 50
2 81.78 19.47
3 8.38 73.01
4 81.67 11.2
5 53.52 16.1
6 70.62 5.22
7 23.61 66.68
8 86.28 26.79
9 42.85 37.41
10 73.69 26.07
11 13.41 67.87
DEMAND_SECTION
1 0 0 0
2 0 234 0
3 111 0 0
4 0 185 0
5 188 0 0
6 44 0 0
7 46 0 0
8 87 0 0
9 117 0 0
10 0 0 279
11 105 0 0
DEPOT_SECTION
1
EOF